750
120 120
1 96 437
2 96 40
3 96 76
4 96 187
5 96 438
6 96 130
7 96 344
8 96 112
9 95 994
10 95 444
11 95 422
12 95 503
13 95 452
14 95 56
15 95 984
16 95 26
17 95 313
18 95 928
19 94 508
20 94 231
21 94 448
22 94 729
23 93 690
24 93 277
25 93 139
26 93 510
27 93 768
28 93 873
29 93 592
30 93 336
31 92 836
32 92 793
33 92 59
34 92 224
35 92 620
36 92 263
37 92 428
38 92 915
39 92 798
40 92 873
41 92 881
42 92 33
43 92 688
44 91 79
45 91 653
46 91 943
47 91 869
48 91 95
49 91 156
50 91 75
51 91 215
52 91 733
53 91 291
54 91 857
55 90 63
56 90 366
57 90 442
58 90 803
59 90 85
60 90 357
61 90 676
62 90 359
63 90 304
64 90 314
65 90 595
66 90 715
67 90 741
68 89 425
69 89 584
70 89 385
71 89 522
72 89 357
73 89 908
74 89 77
75 89 394
76 89 656
77 89 430
78 89 728
79 89 541
80 89 795
81 89 106
82 88 660
83 88 66
84 88 58
85 88 600
86 88 163
87 88 200
88 88 526
89 88 669
90 88 629
91 88 747
92 88 675
93 88 837
94 87 608
95 87 11
96 87 737
97 87 243
98 87 77
99 87 89
100 87 7
101 87 111
102 87 103
103 87 959
104 86 312
105 86 248
106 86 875
107 86 706
108 86 663
109 86 717
110 86 995
111 86 616
112 86 680
113 85 266
114 85 632
115 85 528
116 85 529
117 85 715
118 85 718
119 85 42
120 85 636
121 85 568
122 85 916
123 85 554
124 85 298
125 85 476
126 85 178
127 85 608
128 84 804
129 84 208
130 84 996
131 84 415
132 83 834
133 83 751
134 83 247
135 83 168
136 83 717
137 83 213
138 83 963
139 82 371
140 82 907
141 82 453
142 82 238
143 82 155
144 82 502
145 82 120
146 82 453
147 82 447
148 82 677
149 82 614
150 82 276
151 82 235
152 82 58
153 82 151
154 81 220
155 81 628
156 81 722
157 81 71
158 81 231
159 81 843
160 81 773
161 81 602
162 81 651
163 81 885
164 80 465
165 80 243
166 80 612
167 80 334
168 80 368
169 80 613
170 79 447
171 79 28
172 79 223
173 79 37
174 79 764
175 79 11
176 79 421
177 79 986
178 79 506
179 79 372
180 79 586
181 79 299
182 78 844
183 78 108
184 78 391
185 78 798
186 78 907
187 78 932
188 78 264
189 78 351
190 78 129
191 77 916
192 77 103
193 77 513
194 77 23
195 77 778
196 77 144
197 77 95
198 77 484
199 77 880
200 77 695
201 76 653
202 76 754
203 76 208
204 76 512
205 76 444
206 76 92
207 76 703
208 76 337
209 76 364
210 75 340
211 75 544
212 75 960
213 75 56
214 75 478
215 75 395
216 75 529
217 75 756
218 75 262
219 75 805
220 75 723
221 75 412
222 75 107
223 75 682
224 75 313
225 75 805
226 74 934
227 74 250
228 74 502
229 74 116
230 74 456
231 74 941
232 74 699
233 74 829
234 74 264
235 74 949
236 74 580
237 74 249
238 73 677
239 73 473
240 73 867
241 73 410
242 73 126
243 73 166
244 73 523
245 73 58
246 73 227
247 72 684
248 72 91
249 72 467
250 72 930
251 72 188
252 72 853
253 72 568
254 72 342
255 72 982
256 71 191
257 71 921
258 71 162
259 71 709
260 71 862
261 71 5
262 71 750
263 70 480
264 70 949
265 70 204
266 70 853
267 70 391
268 70 786
269 70 2
270 70 144
271 70 935
272 70 2
273 70 281
274 70 5
275 70 255
276 69 260
277 69 38
278 69 552
279 69 110
280 69 104
281 69 600
282 69 119
283 69 869
284 69 731
285 68 452
286 68 623
287 68 769
288 68 965
289 68 630
290 67 15
291 67 265
292 67 761
293 67 758
294 67 453
295 67 350
296 67 520
297 67 348
298 66 703
299 66 963
300 66 598
301 66 724
302 66 416
303 66 382
304 66 937
305 66 676
306 66 889
307 66 436
308 65 923
309 65 787
310 65 802
311 65 222
312 65 685
313 65 605
314 65 550
315 65 515
316 65 839
317 65 714
318 65 412
319 65 519
320 65 619
321 64 746
322 64 155
323 64 51
324 64 189
325 64 507
326 64 305
327 64 828
328 64 932
329 63 727
330 63 221
331 63 666
332 63 432
333 63 59
334 63 660
335 63 936
336 63 693
337 63 390
338 63 670
339 63 948
340 63 282
341 63 506
342 62 641
343 62 941
344 62 700
345 62 786
346 62 48
347 62 303
348 62 300
349 62 1
350 62 521
351 62 991
352 62 247
353 62 695
354 61 764
355 61 836
356 61 590
357 61 392
358 61 170
359 61 992
360 61 238
361 61 200
362 61 965
363 60 358
364 60 668
365 60 398
366 60 661
367 60 859
368 60 364
369 60 713
370 60 363
371 59 484
372 59 779
373 59 405
374 59 577
375 59 192
376 59 373
377 59 284
378 59 454
379 59 246
380 59 716
381 59 711
382 59 100
383 59 754
384 59 440
385 59 570
386 59 405
387 59 871
388 58 885
389 58 497
390 58 409
391 58 832
392 58 140
393 58 587
394 58 847
395 58 195
396 58 174
397 58 291
398 58 617
399 57 88
400 57 677
401 57 5
402 57 242
403 57 59
404 57 663
405 57 31
406 56 414
407 56 103
408 56 481
409 56 944
410 56 408
411 56 839
412 56 854
413 55 482
414 55 687
415 55 386
416 55 349
417 55 932
418 55 382
419 55 619
420 55 169
421 55 957
422 54 949
423 54 868
424 54 356
425 54 173
426 54 373
427 54 669
428 54 302
429 54 428
430 53 339
431 53 274
432 53 509
433 53 466
434 53 939
435 53 697
436 53 435
437 53 323
438 53 430
439 53 465
440 53 680
441 53 970
442 53 495
443 53 302
444 53 854
445 53 198
446 53 806
447 53 24
448 52 808
449 52 588
450 52 746
451 52 262
452 52 767
453 52 162
454 52 809
455 51 307
456 51 450
457 51 641
458 51 57
459 51 972
460 51 458
461 50 536
462 50 804
463 50 204
464 50 759
465 50 131
466 50 303
467 50 993
468 50 209
469 50 884
470 50 821
471 50 585
472 50 161
473 49 631
474 49 607
475 49 731
476 49 802
477 49 532
478 49 895
479 49 228
480 49 13
481 48 363
482 48 701
483 48 486
484 48 751
485 48 425
486 48 915
487 48 593
488 48 824
489 48 206
490 47 735
491 47 345
492 47 153
493 47 758
494 47 682
495 47 99
496 47 594
497 47 594
498 47 127
499 47 682
500 47 562
501 47 185
502 47 478
503 47 474
504 47 784
505 47 825
506 47 601
507 46 46
508 46 710
509 46 11
510 46 623
511 46 15
512 46 372
513 46 646
514 46 199
515 46 416
516 46 593
517 46 381
518 45 123
519 45 341
520 45 606
521 45 251
522 45 428
523 45 657
524 45 565
525 45 161
526 45 857
527 45 829
528 45 899
529 45 524
530 45 227
531 45 912
532 44 59
533 44 430
534 44 53
535 44 431
536 44 836
537 44 884
538 44 668
539 44 903
540 44 228
541 44 132
542 44 521
543 44 654
544 44 939
545 44 959
546 43 141
547 43 284
548 43 498
549 43 589
550 43 848
551 43 892
552 42 349
553 42 147
554 42 8
555 42 982
556 42 218
557 42 568
558 41 555
559 41 931
560 41 822
561 41 875
562 41 979
563 41 140
564 41 171
565 41 312
566 41 373
567 41 374
568 40 960
569 40 941
570 40 289
571 40 770
572 40 97
573 40 342
574 40 957
575 40 291
576 40 833
577 40 470
578 40 417
579 39 640
580 39 981
581 39 519
582 39 166
583 39 453
584 39 152
585 39 48
586 39 184
587 39 886
588 39 44
589 39 705
590 38 293
591 38 221
592 38 557
593 38 740
594 38 369
595 38 504
596 38 726
597 38 954
598 38 232
599 38 767
600 37 118
601 37 389
602 37 525
603 37 91
604 37 878
605 37 209
606 37 43
607 37 313
608 37 862
609 37 447
610 37 859
611 37 787
612 37 139
613 37 500
614 37 275
615 36 289
616 36 209
617 36 836
618 36 558
619 36 643
620 36 823
621 36 135
622 36 856
623 36 812
624 36 865
625 36 383
626 36 202
627 36 455
628 36 6
629 36 169
630 36 678
631 35 685
632 35 210
633 35 492
634 35 317
635 35 271
636 35 703
637 35 195
638 35 941
639 34 40
640 34 930
641 34 712
642 34 492
643 34 208
644 34 597
645 34 972
646 34 342
647 33 859
648 33 904
649 33 819
650 33 507
651 33 272
652 33 569
653 33 910
654 33 61
655 33 988
656 33 60
657 33 913
658 33 641
659 33 527
660 32 896
661 32 945
662 32 788
663 32 669
664 32 190
665 32 3
666 32 126
667 32 224
668 32 916
669 32 205
670 31 981
671 31 618
672 31 425
673 31 968
674 31 934
675 31 869
676 31 617
677 31 236
678 31 340
679 31 787
680 31 246
681 31 748
682 31 552
683 30 788
684 30 560
685 30 119
686 30 128
687 30 5
688 30 817
689 30 328
690 29 888
691 29 421
692 29 489
693 29 325
694 29 705
695 29 720
696 29 628
697 29 615
698 29 140
699 29 298
700 28 820
701 28 106
702 28 544
703 28 370
704 28 695
705 28 439
706 28 260
707 28 954
708 28 324
709 28 180
710 28 230
711 28 380
712 27 180
713 27 234
714 27 939
715 27 640
716 27 70
717 27 643
718 27 884
719 27 10
720 27 696
721 27 401
722 27 690
723 27 371
724 27 242
725 27 158
726 27 489
727 26 341
728 26 525
729 26 786
730 26 414
731 26 607
732 26 303
733 26 428
734 26 519
735 26 646
736 26 404
737 26 271
738 26 504
739 25 277
740 25 455
741 25 176
742 25 95
743 25 655
744 25 489
745 25 241
746 25 574
747 25 146
748 24 877
749 24 235
750 24 799
